InboundTrucks  = 100;
OutboundTrucks = 50;
ReleaseTime    = [202,21,298,30,153,285,66,79,23,150,94,267,164,69,46,216,147,198,35,157,22,82,17,238,147,27,142,99,167,174,295,261,235,150,4,281,268,298,82,132,286,23,50,109,291,273,28,22,45,131,124,248,99,191,98,144,122,136,113,60,276,131,139,69,127,4,18,103,191,297,139,89,14,69,157,244,289,239,198,32,280,215,24,57,80,204,122,186,38,264,52,148,160,199,101,138,44,186,254,240];
UnloadTime     = [10,1,10,4,5,8,5,16,16,2,14,4,1,4,25,11,20,5,18,12,11,4,22,20,11,9,5,11,14,4,23,21,12,1,17,2,3,2,5,23,9,20,11,9,4,4,3,24,2,2,2,12,6,12,20,4,18,10,12,1,16,5,4,2,2,10,14,15,4,4,4,4,11,1,18,14,5,3,14,21,23,1,5,11,19,9,21,4,8,12,1,10,7,10,5,1,11,11,3,15];
LoadTime       = [3,19,5,3,10,7,13,5,11,1,9,10,4,7,10,4,4,6,6,8,13,11,5,2,5,8,3,19,15,1,16,5,6,4,4,5,13,10,5,16,13,2,8,16,10,12,19,5,13,3];
TransferTime   = [| 0,0,3,6,0,0,0,0,2,5,0,0,0,0,3,0,0,0,0,0,0,0,6,0,13,0,0,0,4,5,0,0,0,4,0,4,0,0,0,1,0,1,3,0,0,0,0,0,0,0 | 0,0,0,0,0,0,0,1,3,0,0,0,0,3,0,0,0,0,0,0,0,0,0,0,0,0,0,0,3,0,0,0,0,1,0,3,4,0,2,2,0,0,0,0,0,0,0,0,0,0 | 0,0,0,0,0,0,0,0,0,1,0,0,0,8,0,0,1,0,0,1,0,0,0,7,6,0,0,0,0,0,4,0,0,0,0,0,0,15,0,6,0,0,0,0,0,1,6,4,0,0 | 0,0,0,0,0,1,0,0,0,0,0,3,7,0,0,5,0,0,0,3,0,0,0,4,0,1,5,0,0,0,2,1,0,3,0,6,0,0,5,3,0,0,0,0,0,5,0,0,0,0 | 0,0,0,5,0,7,7,0,0,0,0,0,3,0,0,0,0,0,0,0,0,0,0,0,1,1,0,0,0,8,0,0,0,0,4,0,0,4,0,0,0,5,0,0,10,0,0,3,0,2 | 0,2,0,0,1,0,0,0,0,3,0,0,0,0,4,0,8,0,0,0,0,0,2,6,0,4,6,0,6,0,0,0,0,0,14,0,0,0,0,0,0,5,0,0,0,0,8,0,5,0 | 4,0,0,4,0,0,0,0,4,5,0,0,0,3,0,0,0,5,0,0,0,0,0,0,0,0,0,4,3,0,0,0,0,2,0,0,0,0,0,4,0,0,0,0,0,0,0,0,0,0 | 1,0,0,0,0,0,1,0,0,0,0,0,0,0,0,0,0,0,0,0,0,4,0,0,0,0,1,0,0,0,0,4,0,7,0,0,0,0,2,0,0,0,4,0,0,0,0,0,0,0 | 0,0,0,0,2,8,0,0,0,1,0,0,5,0,0,0,0,0,0,0,0,0,0,0,0,0,0,0,0,3,13,0,0,0,0,0,0,0,0,0,0,0,2,0,0,0,3,0,2,0 | 0,0,4,0,0,0,4,0,0,0,0,0,2,0,0,0,0,0,0,0,0,0,6,4,0,0,0,0,0,2,2,0,0,0,13,0,0,0,0,0,0,4,0,0,0,0,5,7,0,0 | 2,5,0,0,0,0,0,0,0,2,0,0,0,0,5,0,0,0,0,0,0,0,0,0,0,0,0,0,0,0,0,0,0,0,0,0,0,0,0,0,0,0,0,1,6,0,0,3,3,3 | 0,0,0,0,0,0,0,0,0,0,0,0,0,4,0,0,0,2,0,5,0,0,0,0,0,0,0,0,0,7,3,0,0,0,0,0,3,0,0,0,0,0,0,8,9,0,0,1,0,1 | 0,0,0,0,0,0,0,0,2,0,0,0,0,0,0,0,3,0,0,0,0,0,0,0,0,0,0,0,0,5,0,0,0,0,2,0,5,0,0,0,0,0,0,0,4,0,0,0,0,0 | 5,0,0,0,7,0,0,7,0,0,0,0,0,0,2,3,2,0,0,0,0,0,5,0,0,5,1,0,6,0,0,0,1,0,0,8,0,0,0,0,0,5,0,0,0,0,0,0,0,3 | 3,0,0,0,0,3,2,0,0,0,0,3,0,0,0,0,0,0,8,0,6,0,0,0,0,0,0,0,8,2,0,0,0,0,0,9,0,7,0,0,0,0,0,2,0,0,0,0,0,0 | 0,0,0,0,0,0,0,0,0,0,0,0,5,5,0,0,5,5,0,0,0,0,0,0,0,0,0,3,0,0,0,0,0,0,1,0,0,0,0,5,6,6,0,0,0,0,0,1,0,0 | 0,0,0,0,0,2,5,0,0,5,3,2,0,0,0,0,0,0,0,0,0,0,1,0,0,0,1,5,0,0,4,0,0,0,0,0,0,0,0,0,0,0,7,1,0,0,0,0,0,6 | 0,4,0,0,0,0,0,0,2,5,9,0,2,0,0,0,0,0,0,0,0,0,5,0,0,0,0,0,3,0,0,0,0,0,3,0,0,0,0,0,0,0,0,0,0,0,0,0,0,1 | 0,0,3,4,0,0,0,0,0,0,0,0,0,0,2,0,0,0,0,0,0,0,0,0,0,2,0,0,0,0,0,0,0,0,3,0,0,0,0,0,0,10,4,0,0,0,0,3,2,0 | 0,5,8,0,0,0,0,0,6,0,0,3,8,3,2,11,0,0,0,0,0,0,1,0,0,4,0,0,0,0,0,0,0,0,1,0,0,0,0,0,0,0,0,0,0,0,0,0,0,4 | 0,0,7,0,0,0,0,0,0,4,0,0,0,0,0,0,0,0,0,0,0,0,0,0,0,12,0,1,4,0,0,0,0,0,0,1,5,2,0,0,0,0,1,11,0,0,0,0,0,8 | 0,0,0,0,0,0,0,3,0,0,0,0,0,0,0,0,0,7,0,0,1,6,0,3,0,0,2,0,0,1,0,0,0,3,0,0,0,0,0,0,0,0,0,0,0,0,3,0,0,0 | 0,2,7,0,0,0,5,0,0,0,4,3,0,0,0,0,0,3,0,2,0,5,0,0,0,0,0,0,5,0,0,0,0,0,0,8,0,0,2,0,0,0,0,4,0,0,0,0,0,0 | 0,0,0,1,0,0,0,0,0,0,0,0,0,0,0,0,0,0,0,0,0,0,2,0,9,0,0,0,0,0,0,0,7,0,9,0,0,0,0,0,0,0,0,0,0,0,0,0,2,5 | 0,0,0,0,0,4,5,0,0,0,4,0,0,0,0,0,0,0,0,1,0,4,0,0,0,0,0,0,11,0,0,2,5,6,0,0,0,0,0,6,6,0,0,1,0,6,0,0,0,0 | 0,0,0,13,0,0,2,0,0,0,0,0,0,0,2,0,0,0,0,0,0,0,0,0,2,4,0,0,0,0,0,0,1,0,5,0,0,0,0,0,0,4,2,0,0,0,0,0,0,1 | 4,6,0,0,0,5,3,1,5,1,4,3,0,0,0,8,0,0,0,0,0,2,0,0,0,3,0,0,0,0,0,1,0,0,0,0,0,0,5,0,0,0,0,0,0,0,0,0,0,0 | 0,1,7,0,0,0,0,0,0,0,0,0,5,0,0,0,0,0,6,1,0,0,0,0,0,5,0,0,0,8,0,0,0,0,0,0,0,0,0,4,0,4,0,0,0,0,0,0,0,5 | 3,0,0,0,0,4,1,0,0,0,2,2,0,0,4,0,0,0,2,0,0,4,0,0,0,0,2,0,0,0,0,0,0,0,0,6,0,0,0,4,7,0,0,0,0,0,0,2,0,0 | 6,0,0,0,0,0,0,0,3,0,0,0,0,1,0,3,0,0,0,0,0,0,0,0,0,0,0,3,0,0,0,0,6,3,0,0,5,0,5,2,0,0,0,0,0,0,0,0,0,5 | 0,0,0,0,0,0,0,0,6,0,5,0,0,2,0,0,0,0,0,0,0,5,3,0,0,0,0,0,0,0,0,0,0,0,0,0,0,0,0,0,0,0,0,0,0,3,7,0,1,0 | 2,0,0,0,0,0,0,5,0,4,4,0,2,0,0,0,0,0,0,0,0,5,0,0,0,0,1,0,0,0,0,5,0,0,0,1,0,1,3,4,0,0,0,5,0,0,0,3,0,0 | 0,0,0,0,0,0,5,0,0,0,0,0,0,0,8,8,1,1,0,1,2,0,0,0,0,0,0,0,0,0,0,0,3,0,8,0,0,0,10,0,5,0,0,0,0,3,0,3,0,4 | 0,0,0,0,3,0,6,0,5,0,0,0,0,0,0,2,0,0,7,0,0,0,0,0,0,0,0,0,0,0,6,0,0,4,0,0,0,0,0,3,0,0,0,4,0,0,0,0,0,3 | 0,0,0,0,0,0,0,0,0,0,0,0,0,0,0,0,4,0,0,0,0,0,0,0,0,0,0,0,6,7,0,0,0,2,0,0,0,5,0,0,0,0,0,0,0,2,7,8,0,0 | 0,0,5,0,0,0,0,0,0,3,0,0,0,0,0,0,1,0,0,0,0,0,0,0,0,0,0,0,10,4,0,0,0,0,0,4,0,0,8,0,0,0,0,0,0,0,0,0,0,2 | 0,0,0,0,0,0,0,0,0,2,2,6,0,0,0,0,0,3,6,0,2,0,0,0,0,0,0,0,4,0,0,0,5,2,0,3,2,0,0,1,0,0,0,0,3,0,0,0,0,0 | 0,0,0,0,0,0,0,0,0,0,0,7,2,4,0,0,0,0,0,0,0,0,0,0,0,0,0,0,0,0,0,7,0,1,0,5,0,0,0,0,0,0,0,0,0,0,0,0,0,0 | 0,0,0,0,0,2,2,0,7,0,0,0,0,0,0,0,0,0,0,0,0,2,4,0,0,0,13,0,0,0,0,1,0,0,0,0,0,0,1,0,0,0,2,4,4,0,0,0,0,0 | 0,7,3,0,4,0,0,5,0,0,0,0,1,0,0,0,0,0,0,0,2,0,0,0,0,0,0,0,0,0,0,4,4,0,0,0,0,0,0,0,0,0,4,3,0,0,14,0,0,0 | 0,0,0,0,2,0,0,0,0,0,0,0,5,5,0,0,0,8,0,0,0,0,0,1,0,0,0,0,0,5,0,1,0,0,0,0,6,0,8,0,8,8,1,0,0,0,5,0,0,0 | 0,0,0,0,0,0,0,0,0,0,0,0,2,0,0,0,2,13,8,3,0,0,0,0,0,0,0,0,0,0,1,0,0,0,0,0,0,0,0,0,15,0,0,0,5,0,0,3,0,0 | 0,8,0,0,0,0,0,0,0,0,0,4,0,0,3,8,4,5,0,0,0,0,0,0,0,0,0,0,0,0,0,7,4,0,6,0,0,0,0,0,0,5,0,0,3,0,0,0,0,0 | 0,0,0,0,0,0,0,0,0,4,0,0,0,0,0,0,3,0,0,1,0,0,0,5,0,0,0,1,0,0,0,0,0,2,0,0,4,0,0,5,0,0,0,0,0,4,7,0,0,0 | 0,0,0,0,0,0,0,0,0,0,3,0,0,0,0,0,0,3,0,0,0,8,0,0,0,0,0,0,0,0,2,4,0,0,0,0,0,0,6,0,4,0,0,0,3,4,0,2,1,0 | 0,0,0,0,0,0,0,0,0,0,3,0,0,1,0,0,0,0,0,0,0,11,0,0,0,0,0,0,0,0,0,0,0,4,0,2,2,0,0,5,0,6,0,0,0,0,0,0,0,0 | 6,0,0,0,0,0,4,0,0,0,3,0,0,0,0,7,0,0,0,0,0,0,0,0,0,0,6,0,0,0,0,0,0,0,0,0,0,0,7,0,0,0,0,0,8,0,4,0,0,0 | 2,7,4,0,0,1,0,0,0,0,3,2,0,0,0,0,0,0,0,0,0,4,0,0,0,0,0,0,0,0,0,0,0,1,3,0,0,0,5,5,0,0,0,0,0,5,6,12,0,0 | 0,1,0,0,0,0,0,0,0,0,0,0,0,0,2,0,0,0,0,0,0,0,2,0,0,3,0,2,0,0,0,6,0,0,0,0,0,0,0,0,0,0,0,0,0,0,1,0,0,1 | 0,0,0,0,5,0,0,1,0,0,0,0,5,0,0,4,0,0,0,0,2,0,0,2,5,0,3,0,3,2,0,3,0,0,0,0,10,0,0,2,0,0,3,0,0,0,0,0,0,0 | 0,0,5,0,0,0,0,0,0,0,0,0,5,2,0,0,0,0,3,0,1,8,0,4,0,0,0,0,0,5,0,0,0,0,0,0,5,0,0,8,0,8,1,0,0,0,0,0,0,0 | 0,0,0,0,8,0,0,0,5,2,0,0,0,3,0,5,0,0,5,0,0,4,0,7,0,0,6,3,4,0,0,0,0,1,0,0,3,0,0,1,0,0,5,0,0,0,0,0,0,0 | 0,0,0,0,0,0,0,0,0,0,0,0,2,0,0,0,0,0,0,0,0,0,2,0,0,0,5,0,0,0,0,0,0,3,0,1,0,0,4,0,0,0,0,3,0,0,0,0,0,0 | 0,5,4,0,0,0,0,0,0,0,0,0,0,0,4,0,0,0,0,0,0,0,0,0,5,0,0,0,4,0,0,0,0,0,0,0,0,0,7,0,0,0,0,0,7,0,0,0,0,0 | 0,2,0,3,0,0,0,0,0,0,0,0,6,0,0,0,5,0,0,0,0,0,2,0,4,0,0,0,0,0,0,0,0,0,0,0,0,0,0,0,0,14,0,0,1,0,0,0,5,1 | 0,0,0,0,4,0,0,0,0,0,0,6,2,0,0,0,0,0,0,0,0,0,0,0,0,0,0,0,0,0,0,0,0,0,0,0,0,4,0,0,0,0,2,0,0,0,0,0,0,0 | 0,0,0,0,0,0,0,0,4,5,0,0,0,0,0,0,0,0,0,0,0,0,0,0,0,0,0,0,5,0,0,0,0,0,0,3,1,0,0,2,6,0,0,0,0,0,0,0,0,0 | 2,0,3,0,1,0,0,3,0,0,0,0,0,0,0,0,5,0,3,0,3,0,0,1,0,0,0,0,0,3,0,0,6,0,0,0,0,0,6,0,0,0,0,0,0,0,5,0,0,0 | 0,5,0,0,0,0,0,0,8,0,0,0,6,0,4,6,0,0,0,0,0,2,0,0,2,0,0,0,0,0,0,0,6,0,2,0,0,0,3,0,0,13,0,4,0,0,8,0,5,4 | 0,4,4,0,0,0,0,0,0,0,0,0,8,0,0,0,2,0,0,0,0,1,0,0,0,0,0,0,0,0,2,0,0,0,0,0,0,0,2,2,0,0,0,0,2,2,0,0,7,0 | 0,6,2,0,2,0,0,4,0,0,0,0,1,0,0,6,0,0,5,0,0,0,0,0,7,0,0,0,0,1,0,0,0,0,0,0,0,0,0,0,0,0,4,0,2,0,4,0,0,0 | 0,0,0,0,0,0,0,0,0,0,0,0,0,3,0,0,3,15,2,4,0,0,0,0,0,0,0,7,0,0,3,0,0,0,0,0,0,2,0,0,0,0,0,0,5,3,0,3,0,0 | 3,0,0,0,0,0,0,0,5,0,1,1,0,0,0,0,8,0,0,0,0,2,0,0,0,0,3,0,2,1,0,4,0,0,0,0,0,0,5,0,6,7,0,5,0,0,0,0,0,0 | 1,0,0,0,1,4,1,0,0,6,0,4,0,0,0,3,0,0,0,0,0,4,0,0,0,0,1,0,0,0,0,1,0,0,0,0,0,0,3,0,0,0,0,3,0,0,7,0,0,0 | 2,0,0,0,0,0,3,0,0,0,0,6,0,0,0,0,0,4,0,11,0,0,1,0,0,0,0,0,3,0,15,0,0,0,0,0,0,0,0,3,0,0,0,0,0,5,0,2,0,4 | 0,0,2,0,0,3,0,7,0,0,5,5,0,0,0,4,1,0,0,0,0,0,0,0,0,3,3,0,0,0,0,0,0,0,0,8,0,0,4,0,0,0,0,5,0,0,0,0,10,0 | 0,0,0,0,0,0,0,0,0,0,10,0,0,0,1,0,0,0,7,0,0,0,9,0,0,4,0,0,0,0,0,0,0,0,5,6,0,0,0,0,4,4,0,0,0,0,0,0,1,3 | 3,0,0,3,6,0,0,0,0,0,2,0,0,0,0,0,5,1,0,1,0,0,0,0,0,0,0,0,0,0,1,0,4,0,0,0,0,0,0,0,0,0,0,0,8,2,0,0,0,1 | 0,7,0,0,2,8,0,0,0,0,0,7,0,7,0,0,0,0,0,5,1,0,0,0,0,0,0,0,0,0,0,0,0,14,0,0,8,0,3,0,0,0,5,0,0,0,4,0,0,7 | 0,1,0,4,0,0,0,0,0,0,0,0,0,0,4,0,0,0,0,0,0,0,0,0,13,0,0,0,0,0,0,0,1,0,3,0,0,0,0,0,0,0,0,2,0,0,0,0,3,0 | 3,0,1,0,0,0,0,0,3,0,0,0,6,1,0,4,2,5,0,0,3,0,0,0,0,0,0,4,0,0,3,0,0,1,0,3,0,0,0,0,5,0,0,0,0,0,0,7,3,0 | 0,0,3,4,0,0,0,0,0,0,0,0,4,1,0,0,5,5,2,0,4,0,0,0,0,0,0,0,0,0,0,0,0,0,0,0,0,0,0,0,0,0,0,0,0,0,3,0,0,0 | 4,0,1,0,5,0,0,0,0,0,0,0,0,0,0,0,7,0,0,0,0,0,0,0,0,6,0,4,0,0,0,0,7,1,0,0,8,0,0,0,0,0,0,0,1,0,11,0,0,0 | 0,0,5,0,0,0,0,0,0,0,0,0,4,0,0,0,0,0,0,0,4,0,7,0,0,0,0,0,0,0,0,0,0,0,0,0,0,0,7,0,0,0,0,0,0,0,2,7,0,0 | 0,0,0,0,0,0,0,0,0,0,0,0,0,0,0,0,3,0,0,0,0,0,0,0,0,0,3,0,0,0,2,0,4,0,0,0,0,0,0,0,5,0,0,0,0,0,0,0,4,0 | 0,0,0,0,4,0,0,0,0,6,0,4,0,7,0,0,4,1,0,0,0,0,0,0,0,0,0,0,0,0,5,8,4,0,0,0,5,0,7,0,0,0,0,0,0,0,0,0,0,0 | 0,8,0,1,0,0,1,0,0,0,0,0,0,0,0,0,0,0,0,0,0,1,4,7,4,0,0,0,0,0,0,0,0,0,0,0,0,0,0,0,0,15,0,0,0,0,0,0,5,2 | 0,0,6,0,6,0,0,0,0,0,0,0,0,0,0,0,0,4,0,0,0,8,0,0,0,6,0,0,0,0,0,0,5,0,0,14,0,3,0,0,4,6,0,2,0,3,0,3,0,8 | 2,0,0,0,0,4,0,0,0,0,0,3,0,0,0,0,0,0,0,6,1,4,0,0,0,0,0,0,2,0,0,0,0,0,0,0,0,1,0,0,0,0,0,4,0,0,0,0,0,0 | 5,1,0,0,0,2,0,0,0,0,1,8,0,0,0,0,0,6,0,0,0,4,0,6,0,0,1,0,15,0,0,1,0,0,0,0,0,0,3,1,0,4,0,5,0,0,4,0,7,0 | 1,8,0,0,0,0,0,0,0,8,0,0,0,0,0,0,2,5,0,0,0,0,0,0,0,5,0,5,0,0,0,0,0,0,0,0,0,0,0,0,1,0,0,0,0,0,0,1,0,0 | 0,2,5,0,1,0,0,4,0,0,0,0,3,0,0,0,6,1,3,7,3,0,0,1,0,0,0,0,0,0,0,0,0,0,0,0,0,0,6,0,0,0,0,0,0,0,0,0,0,0 | 0,3,0,2,0,1,0,0,0,0,0,6,0,0,5,0,0,0,4,0,0,0,10,0,5,0,7,0,4,0,0,0,0,0,5,0,0,6,7,0,0,0,0,3,0,0,0,2,5,0 | 0,0,0,0,0,0,0,0,0,0,3,1,0,0,0,5,0,0,0,0,0,4,0,0,0,0,0,0,0,0,0,5,0,0,0,0,0,6,1,0,0,0,0,0,0,0,0,0,0,0 | 0,0,0,0,0,4,0,0,3,0,3,2,0,0,0,0,0,0,0,0,0,0,0,0,0,0,0,0,0,0,0,5,0,0,0,0,0,0,0,0,7,0,0,3,6,7,0,0,0,0 | 0,0,1,14,0,0,0,2,8,0,8,0,0,0,0,0,0,0,0,0,0,0,0,0,4,0,0,3,0,0,0,0,0,0,0,0,0,0,0,0,0,0,3,0,0,2,4,0,0,0 | 0,1,0,0,0,0,4,0,0,0,0,0,0,0,0,0,3,0,0,0,0,0,4,0,5,3,0,0,0,0,0,0,0,0,3,0,0,0,7,0,0,0,0,0,0,0,0,0,0,2 | 0,0,0,0,0,0,0,0,0,0,0,0,4,0,0,0,5,0,0,4,0,0,0,0,0,0,0,0,0,0,0,6,0,0,0,0,0,0,0,0,0,0,0,0,3,0,0,4,0,0 | 0,0,0,0,0,0,0,4,0,0,0,0,0,0,0,7,0,0,0,0,0,0,0,0,0,4,0,0,11,0,0,0,1,0,0,0,0,0,0,0,0,0,4,0,2,3,0,0,0,0 | 8,0,5,0,4,0,0,1,0,0,0,0,3,0,0,0,0,8,0,0,2,0,0,0,0,4,0,0,6,12,0,0,0,0,4,0,0,0,0,0,0,0,4,0,0,0,3,0,0,0 | 0,5,0,10,0,0,0,0,0,0,0,0,0,2,0,0,0,0,5,0,0,0,2,0,0,0,0,0,0,2,1,3,0,0,3,0,0,0,0,0,0,2,0,0,0,0,0,0,0,3 | 0,0,0,0,0,0,0,0,2,2,0,0,0,4,0,12,0,0,0,0,0,0,0,2,0,0,0,14,0,1,0,0,0,1,0,2,0,0,3,1,2,0,0,0,0,0,0,0,5,0 | 0,0,0,0,0,0,0,0,0,0,5,0,0,0,0,0,4,0,0,3,0,0,0,0,0,8,0,7,0,0,0,0,4,0,0,0,0,3,0,0,0,0,0,0,5,0,0,0,0,0 | 0,0,0,0,0,0,0,3,0,0,4,0,0,0,0,0,0,3,0,0,0,0,0,0,0,3,1,0,0,0,0,0,1,6,0,0,0,0,0,0,0,3,0,5,15,5,0,0,0,0 | 0,0,0,0,2,7,0,2,0,0,0,0,0,0,0,0,0,0,5,0,0,0,0,3,0,0,0,0,0,0,0,0,0,0,0,0,0,0,0,0,5,0,0,0,0,0,1,0,0,0 | 9,0,0,0,0,0,0,8,3,0,2,0,0,0,3,2,0,0,0,0,0,8,0,0,0,0,0,0,0,0,0,0,0,0,0,5,2,0,0,1,0,2,0,0,0,0,0,11,0,1 | 0,0,0,0,0,0,0,0,0,3,2,0,1,0,0,1,0,0,0,0,0,0,0,5,0,0,4,1,0,0,0,0,0,0,0,0,0,0,0,2,0,0,0,0,0,0,0,0,0,0 | 0,0,0,0,0,0,0,0,4,4,0,0,0,0,0,5,0,0,0,0,0,0,0,0,0,0,0,0,0,0,0,0,7,0,0,5,2,0,0,3,0,0,0,0,0,0,0,8,2,0 | 0,4,0,0,2,0,0,2,0,0,0,7,0,0,7,0,0,0,0,0,0,1,0,0,0,0,2,0,0,0,0,0,3,0,0,0,0,0,0,2,0,0,1,0,0,4,3,0,0,0 | 0,0,0,0,0,0,0,0,0,2,0,0,0,0,0,0,0,0,0,0,0,0,0,4,0,0,0,0,0,0,0,0,0,0,13,0,0,0,0,0,0,0,0,0,0,0,0,0,4,0 |];
